NAME : instances/clustered-mixed-tsp/instance-98.tsp
COMMENT : No Comment
TYPE : TSP
DIMENSION: 42
EDGE_WEIGHT_TYPE : EUC_2D
NODE_COORD_SECTION
1 293 767 
2 485 711 
3 975 479 
4 809 465 
5 455 433 
6 685 777 
7 425 -57 
8 455 803 
9 449 729 
10 425 47 
11 789 759 
12 347 749 
13 -5 871 
14 775 933 
15 311 821 
16 757 741 
17 293 469 
18 383 343 
19 733 249 
20 395 729 
21 807 669 
22 957 497 
23 937 789 
24 67 727 
25 1029 461 
26 383 433 
27 413 801 
28 407 -75 
29 703 813 
30 897 777 
31 793 879 
32 311 731 
33 383 821 
34 335 47 
35 503 729 
36 467 819 
37 395 837 
38 883 807 
39 701 447 
40 957 533 
41 419 469 
42 407 -25 
EOF
